db/data/34271274301865142256015206834321078.z3.out
sat
-------------------
790.532689247
